atom_style hybrid angle sphere
units si
processors	* * 1
comm_modify vel yes

region simulationStation block -0.25 0.25 -0.25 0.25 -0.1 0.1
create_box 100 simulationStation bond/types 100000 extra/bond/per/atom 100 angle/types 10000 extra/angle/per/atom 100
change_box	all boundary f f f

pair_style hybrid/overlay granular lj/cut 0
pair_coeff  * * granular hertz/material 0 0 0 tangential linear_nohistory 0 0
pair_coeff  * * lj/cut 0 0 0

special_bonds lj/coul 0 1.0 1.0
bond_style harmonic
angle_style cosine

bond_coeff * 0 0
angle_coeff * 0
fix integration all nve/sphere
neigh_modify page 500000 one 50000


### Here we will begin to include particles ###


include grains_1.txt 
set type 1 diameter 0.03
set type 1 density 0.01

group group_wall_1 type 1
region region_1 cylinder z 0 0 0.5 -0.002 0.2
fix fix_walls_1 group_wall_1 wall/gran/region granular hertz/material 1000 0.25 0.25 tangential linear_nohistory 0 0 region region_1

group group_wall_2 type 1
region region_2 cylinder z 0 0 0.5 -0.2 0.002
fix fix_walls_2 group_wall_2 wall/gran/region granular hertz/material 1000 0.25 0.25 tangential linear_nohistory 0 0 region region_2

group group_wall_3 type 1
region region_3 cylinder z 0 0 0.159 -0.2 0.2
fix fix_walls_3 group_wall_3 wall/gran/region granular hertz/material 1000 0.25 0.25 tangential linear_nohistory 0 0 region region_3
pair_coeff 1 1 granular hertz/material 1000 0 0.5 tangential linear_nohistory 0 0

group group_viscosity_1 type 1
fix fix_viscosity_1 group_viscosity_1 viscous 0.001

compute stress all stress/atom NULL
compute contacts all contact/atom
variable pressure atom 2*(c_stress[1]+c_stress[2]+c_stress[3])/(c_contacts+.001)
compute bendingE all pe/atom angle
compute stretchingE all pe/atom bond
dump pump all custom 1 out*.dump id type radius x y z fx fy fz v_pressure c_bendingE c_stretchingE
dump_modify pump pad 11

timestep 1e-05
dump_modify pump every 5000
run 50000
unfix fix_walls_1
region region_1 delete
group group_wall_1 delete
unfix fix_walls_2
region region_2 delete
group group_wall_2 delete
unfix fix_walls_3
region region_3 delete
group group_wall_3 delete
unfix fix_viscosity_1

include sheet_1.txt 
set type 2 diameter 0.004
set type 2 density 0.5
bond_coeff 1 8.660254037844386 0.004
include bonds_1.txt
angle_coeff 1 1.1111111111111112e-06
include angles_1.txt

group group_viscosity_2 type 2
fix fix_viscosity_2 group_viscosity_2 viscous 1e-05

group group_move_1 id 113 114 115 116 117 118 119 120 121 122 123 124 125 126 127 128 129 130 131 132 133 134 135 136 137 138 139 140 141 142 143 144 145 146 147 148 149 150 151 152 153 154 155 156 157 158 159 160 161 162 163 164 165 166 167 168 169 170 171 172 173 174 175 176 177 178 179 180 181 182 183 184 185 186 187 188 189 190 202 203 204 205 206 207 208 209 210 211 212 213 214 215 216 217 218 219 220 221 240 241 242 243 244 245 246 247 248 249 250 251 252 253 254 255 281 282 283 284 285 286 287 288 289 290 291 292 293 294 323 324 325 326 327 328 329 330 331 332 333 334 335 369 370 371 372 373 374 375 376 377 378 379 380 417 418 419 420 421 422 423 424 425 426 427 467 468 469 470 471 472 473 474 475 476 519 520 521 522 523 524 525 526 527 528 572 573 574 575 576 577 578 579 580 581 628 629 630 631 632 633 634 635 636 686 687 688 689 690 691 692 693 744 745 746 747 748 749 750 751 752 804 805 806 807 808 809 810 811 812 867 868 869 870 871 872 873 874 930 931 932 933 934 935 936 937 994 995 996 997 998 999 1000 1060 1061 1062 1063 1064 1065 1126 1127 1128 1129 1130 1131 1193 1194 1195 1196 1197 1198 1261 1262 1263 1264 1265 1266 1330 1331 1332 1333 1334 1335 1400 1401 1402 1403 1404 1405 1471 1472 1473 1474 1475 1476 1543 1544 1545 1546 1547 1548 1616 1617 1618 1619 1620 1621 1690 1691 1692 1693 1694 1695 1765 1766 1767 1768 1769 1770 1771 1840 1841 1842 1843 1844 1845 1846 1916 1917 1918 1919 1920 1921 1992 1993 1994 1995 1996 1997 2069 2070 2071 2072 2073 2074 2075 2146 2147 2148 2149 2150 2151 2152 2224 2225 2226 2227 2228 2229 2302 2303 2304 2305 2306 2307 2381 2382 2383 2384 2385 2386 2459 2460 2461 2462 2463 2464 2538 2539 2540 2541 2542 2543 2544 2617 2618 2619 2620 2621 2622 2623 2697 2698 2699 2700 2701 2702 2777 2778 2779 2780 2781 2782 2856 2857 2858 2859 2860 2861 2936 2937 2938 2939 2940 2941 3015 3016 3017 3018 3019 3020 3095 3096 3097 3098 3099 3100 3174 3175 3176 3177 3178 3179 3254 3255 3256 3257 3258 3259 3333 3334 3335 3336 3337 3338 3339 3412 3413 3414 3415 3416 3417 3418 3492 3493 3494 3495 3496 3497 3570 3571 3572 3573 3574 3575 3649 3650 3651 3652 3653 3654 3727 3728 3729 3730 3731 3732 3804 3805 3806 3807 3808 3809 3810 3881 3882 3883 3884 3885 3886 3887 3959 3960 3961 3962 3963 3964 4035 4036 4037 4038 4039 4040 4110 4111 4112 4113 4114 4115 4116 4185 4186 4187 4188 4189 4190 4191 4261 4262 4263 4264 4265 4266 4335 4336 4337 4338 4339 4340 4408 4409 4410 4411 4412 4413 4480 4481 4482 4483 4484 4485 4551 4552 4553 4554 4555 4556 4621 4622 4623 4624 4625 4626 4690 4691 4692 4693 4694 4695 4758 4759 4760 4761 4762 4763 4825 4826 4827 4828 4829 4830 4891 4892 4893 4894 4895 4896 4956 4957 4958 4959 4960 4961 4962 5019 5020 5021 5022 5023 5024 5025 5026 5082 5083 5084 5085 5086 5087 5088 5089 5144 5145 5146 5147 5148 5149 5150 5151 5152 5204 5205 5206 5207 5208 5209 5210 5211 5212 5263 5264 5265 5266 5267 5268 5269 5270 5320 5321 5322 5323 5324 5325 5326 5327 5328 5375 5376 5377 5378 5379 5380 5381 5382 5383 5384 5428 5429 5430 5431 5432 5433 5434 5435 5436 5437 5480 5481 5482 5483 5484 5485 5486 5487 5488 5489 5529 5530 5531 5532 5533 5534 5535 5536 5537 5538 5539 5576 5577 5578 5579 5580 5581 5582 5583 5584 5585 5586 5587 5621 5622 5623 5624 5625 5626 5627 5628 5629 5630 5631 5632 5633 5662 5663 5664 5665 5666 5667 5668 5669 5670 5671 5672 5673 5674 5675 5701 5702 5703 5704 5705 5706 5707 5708 5709 5710 5711 5712 5713 5714 5715 5716 5735 5736 5737 5738 5739 5740 5741 5742 5743 5744 5745 5746 5747 5748 5749 5750 5751 5752 5753 5754 5766 5767 5768 5769 5770 5771 5772 5773 5774 5775 5776 5777 5778 5779 5780 5781 5782 5783 5784 5785 5786 5787 5788 5789 5790 5791 5792 5793 5794 5795 5796 5797 5798 5799 5800 5801 5802 5803 5804 5805 5806 5807 5808 5809 5810 5811 5812 5813 5814 5815 5816 5817 5818 5819 5820 5821 5822 5823 5824 5825 5826 5827 5828 5829 5830 5831 5832 5833 5834 5835 5836 5837 5838 5839 5840 5841 5842 5843
fix fix_move_1 group_move_1 move linear 0 0 0

include connect_1.txt 

group group_perturb_1 id 1 2
fix fix_perturb_1 group_perturb_1 gravity 1e-05 vector 0 0 -1

timestep 1e-06
dump_modify pump every 50000
run 500000
